NAME F-JSSP-SDST
ROWS
 N  OBJ
 E  c0      
 E  c1      
 E  c2      
 E  c3      
 E  c4      
 E  c5      
 G  c6      
 G  c7      
 G  c8      
 G  c9      
 G  c10     
 G  c11     
 G  c12     
 G  c13     
 L  c14     
 L  c15     
 L  c16     
 L  c17     
 L  c18     
 L  c19     
 L  c20     
 L  c21     
 L  c22     
 L  c23     
 G  c24     
 G  c25     
 G  c26     
 G  c27     
 G  c28     
 G  c29     
 G  c30     
 G  c31     
 G  c32     
 G  c33     
 G  c34     
 G  c35     
 G  c36     
 G  c37     
 G  c38     
 G  c39     
 G  c40     
 G  c41     
 G  c42     
 G  c43     
 G  c44     
 G  c45     
 G  c46     
 G  c47     
 G  c48     
 G  c49     
 G  c50     
 G  c51     
 G  c52     
 G  c53     
 G  c54     
 G  c55     
 G  c56     
 G  c57     
 G  c58     
 G  c59     
 G  c60     
 G  c61     
 G  c62     
 G  c63     
 G  c64     
 G  c65     
 G  c66     
 G  c67     
 G  c68     
 G  c69     
 G  c70     
 G  c71     
 G  c72     
 G  c73     
 G  c74     
 G  c75     
 G  c76     
 G  c77     
 G  c78     
 G  c79     
 G  c80     
 G  c81     
 G  c82     
 G  c83     
 G  c84     
 G  c85     
 G  c86     
 G  c87     
 E  c88     
COLUMNS
    MARKER    'MARKER'                 'INTORG'
    B0(13)    c0        1
    B0(13)    c6        -54
    B0(13)    c7        -1000000054
    B0(13)    c8        -54
    B0(13)    c14       -1000000000
    B0(13)    c24       -1000000000
    B0(13)    c25       -1000000000
    B0(13)    c32       -1000000000
    B0(13)    c33       -1000000000
    B0(13)    c36       -1000000000
    B0(13)    c37       -1000000000
    B0(13)    c40       -1000000000
    B0(13)    c41       -1000000000
    B1(17)    c0        1
    B1(17)    c6        -63
    B1(17)    c7        -63
    B1(17)    c8        -1000000063
    B1(17)    c15       -1000000000
    B1(17)    c26       -1000000000
    B1(17)    c27       -1000000000
    B1(17)    c28       -1000000000
    B1(17)    c29       -1000000000
    B1(17)    c30       -1000000000
    B1(17)    c31       -1000000000
    B1(17)    c34       -1000000000
    B1(17)    c35       -1000000000
    B1(17)    c38       -1000000000
    B1(17)    c39       -1000000000
    B1(17)    c42       -1000000000
    B1(17)    c43       -1000000000
    B2(12)    c1        1
    B2(12)    c7        -1000000000
    B2(12)    c16       -1000000000
    B2(12)    c24       -1000000000
    B2(12)    c25       -1000000000
    B2(12)    c40       -1000000000
    B2(12)    c41       -1000000000
    B2(12)    c48       -1000000000
    B2(12)    c49       -1000000000
    B2(12)    c52       -1000000000
    B2(12)    c53       -1000000000
    B2(12)    c88       -87
    B3(16)    c1        1
    B3(16)    c8        -1000000000
    B3(16)    c17       -1000000000
    B3(16)    c26       -1000000000
    B3(16)    c27       -1000000000
    B3(16)    c42       -1000000000
    B3(16)    c43       -1000000000
    B3(16)    c44       -1000000000
    B3(16)    c45       -1000000000
    B3(16)    c46       -1000000000
    B3(16)    c47       -1000000000
    B3(16)    c50       -1000000000
    B3(16)    c51       -1000000000
    B3(16)    c54       -1000000000
    B3(16)    c55       -1000000000
    B3(16)    c88       -95
    B4(17)    c2        1
    B4(17)    c9        -120
    B4(17)    c10       -1000000120
    B4(17)    c18       -1000000000
    B4(17)    c28       -1000000000
    B4(17)    c29       -1000000000
    B4(17)    c44       -1000000000
    B4(17)    c45       -1000000000
    B4(17)    c56       -1000000000
    B4(17)    c57       -1000000000
    B4(17)    c58       -1000000000
    B4(17)    c59       -1000000000
    B4(17)    c60       -1000000000
    B4(17)    c61       -1000000000
    B4(17)    c62       -1000000000
    B4(17)    c63       -1000000000
    B4(17)    c76       -11
    B5(17)    c3        1
    B5(17)    c10       -1000000000
    B5(17)    c19       -1000000000
    B5(17)    c30       -1000000000
    B5(17)    c31       -1000000000
    B5(17)    c46       -1000000000
    B5(17)    c47       -1000000000
    B5(17)    c56       -1000000000
    B5(17)    c57       -1000000000
    B5(17)    c62       -1000000000
    B5(17)    c63       -1000000000
    B5(17)    c64       -1000000000
    B5(17)    c65       -1000000000
    B5(17)    c66       -1000000000
    B5(17)    c67       -1000000000
    B5(17)    c78       -11
    B5(17)    c88       -152
    B6(10)    c4        1
    B6(10)    c11       -125
    B6(10)    c12       -1000000125
    B6(10)    c13       -125
    B6(10)    c20       -1000000000
    B6(10)    c32       -1000000000
    B6(10)    c33       -1000000000
    B6(10)    c48       -1000000000
    B6(10)    c49       -1000000000
    B6(10)    c80       -10
    B7(14)    c4        1
    B7(14)    c11       -135
    B7(14)    c12       -135
    B7(14)    c13       -1000000135
    B7(14)    c21       -1000000000
    B7(14)    c34       -1000000000
    B7(14)    c35       -1000000000
    B7(14)    c50       -1000000000
    B7(14)    c51       -1000000000
    B7(14)    c58       -1000000000
    B7(14)    c59       -1000000000
    B7(14)    c64       -1000000000
    B7(14)    c65       -1000000000
    B7(14)    c82       -10
    B8(9)     c5        1
    B8(9)     c12       -1000000000
    B8(9)     c22       -1000000000
    B8(9)     c36       -1000000000
    B8(9)     c37       -1000000000
    B8(9)     c52       -1000000000
    B8(9)     c53       -1000000000
    B8(9)     c84       -10
    B8(9)     c88       -143
    B9(13)    c5        1
    B9(13)    c13       -1000000000
    B9(13)    c23       -1000000000
    B9(13)    c38       -1000000000
    B9(13)    c39       -1000000000
    B9(13)    c54       -1000000000
    B9(13)    c55       -1000000000
    B9(13)    c60       -1000000000
    B9(13)    c61       -1000000000
    B9(13)    c66       -1000000000
    B9(13)    c67       -1000000000
    B9(13)    c86       -10
    B9(13)    c88       -124
    B10(0)    OBJ       0
    B11(4)    c24       -1000000000
    B11(4)    c25       1000000000
    B11(4)    c26       -1000000000
    B11(4)    c27       1000000000
    B12(2)    c28       -1000000000
    B12(2)    c29       1000000000
    B13(2)    c30       -1000000000
    B13(2)    c31       1000000000
    B14(4)    c32       -1000000000
    B14(4)    c33       1000000000
    B14(4)    c34       -1000000000
    B14(4)    c35       1000000000
    B15(4)    c36       -1000000000
    B15(4)    c37       1000000000
    B15(4)    c38       -1000000000
    B15(4)    c39       1000000000
    B16(4)    c40       -1000000000
    B16(4)    c41       1000000000
    B16(4)    c42       -1000000000
    B16(4)    c43       1000000000
    B17(0)    OBJ       0
    B18(2)    c44       -1000000000
    B18(2)    c45       1000000000
    B19(2)    c46       -1000000000
    B19(2)    c47       1000000000
    B20(4)    c48       -1000000000
    B20(4)    c49       1000000000
    B20(4)    c50       -1000000000
    B20(4)    c51       1000000000
    B21(4)    c52       -1000000000
    B21(4)    c53       1000000000
    B21(4)    c54       -1000000000
    B21(4)    c55       1000000000
    B22(0)    OBJ       0
    B23(0)    OBJ       0
    B24(0)    OBJ       0
    B25(2)    c56       -1000000000
    B25(2)    c57       1000000000
    B26(2)    c58       -1000000000
    B26(2)    c59       1000000000
    B27(2)    c60       -1000000000
    B27(2)    c61       1000000000
    B28(0)    OBJ       0
    B29(0)    OBJ       0
    B30(2)    c62       -1000000000
    B30(2)    c63       1000000000
    B31(0)    OBJ       0
    B32(2)    c64       -1000000000
    B32(2)    c65       1000000000
    B33(2)    c66       -1000000000
    B33(2)    c67       1000000000
    B34(0)    OBJ       0
    B35(0)    OBJ       0
    B36(0)    OBJ       0
    B37(0)    OBJ       0
    B38(0)    OBJ       0
    B39(0)    OBJ       0
    B40(0)    OBJ       0
    B41(0)    OBJ       0
    B42(0)    OBJ       0
    B43(0)    OBJ       0
    B44(0)    OBJ       0
    B45(0)    OBJ       0
    I46(14)   c6        -1
    I46(14)   c7        -1
    I46(14)   c8        -1
    I46(14)   c14       1
    I46(14)   c24       1
    I46(14)   c25       -1
    I46(14)   c32       1
    I46(14)   c33       -1
    I46(14)   c36       1
    I46(14)   c37       -1
    I46(14)   c40       -1
    I46(14)   c41       1
    I46(14)   c68       1
    I46(14)   c69       1
    I47(18)   c6        -1
    I47(18)   c7        -1
    I47(18)   c8        -1
    I47(18)   c15       1
    I47(18)   c26       1
    I47(18)   c27       -1
    I47(18)   c28       1
    I47(18)   c29       -1
    I47(18)   c30       1
    I47(18)   c31       -1
    I47(18)   c34       1
    I47(18)   c35       -1
    I47(18)   c38       1
    I47(18)   c39       -1
    I47(18)   c42       -1
    I47(18)   c43       1
    I47(18)   c70       1
    I47(18)   c71       1
    I48(15)   c6        1
    I48(15)   c7        1
    I48(15)   c8        1
    I48(15)   c16       1
    I48(15)   c24       -1
    I48(15)   c25       1
    I48(15)   c40       1
    I48(15)   c41       -1
    I48(15)   c48       1
    I48(15)   c49       -1
    I48(15)   c52       1
    I48(15)   c53       -1
    I48(15)   c72       1
    I48(15)   c73       1
    I48(15)   c88       -1
    I49(19)   c6        1
    I49(19)   c7        1
    I49(19)   c8        1
    I49(19)   c17       1
    I49(19)   c26       -1
    I49(19)   c27       1
    I49(19)   c42       1
    I49(19)   c43       -1
    I49(19)   c44       1
    I49(19)   c45       -1
    I49(19)   c46       1
    I49(19)   c47       -1
    I49(19)   c50       1
    I49(19)   c51       -1
    I49(19)   c54       1
    I49(19)   c55       -1
    I49(19)   c74       1
    I49(19)   c75       1
    I49(19)   c88       -1
    I50(17)   c9        -1
    I50(17)   c10       -1
    I50(17)   c18       1
    I50(17)   c28       -1
    I50(17)   c29       1
    I50(17)   c44       -1
    I50(17)   c45       1
    I50(17)   c56       1
    I50(17)   c57       -1
    I50(17)   c58       1
    I50(17)   c59       -1
    I50(17)   c60       1
    I50(17)   c61       -1
    I50(17)   c62       -1
    I50(17)   c63       1
    I50(17)   c76       1
    I50(17)   c77       1
    I51(18)   c9        1
    I51(18)   c10       1
    I51(18)   c19       1
    I51(18)   c30       -1
    I51(18)   c31       1
    I51(18)   c46       -1
    I51(18)   c47       1
    I51(18)   c56       -1
    I51(18)   c57       1
    I51(18)   c62       1
    I51(18)   c63       -1
    I51(18)   c64       1
    I51(18)   c65       -1
    I51(18)   c66       1
    I51(18)   c67       -1
    I51(18)   c78       1
    I51(18)   c79       1
    I51(18)   c88       -1
    I52(10)   c11       -1
    I52(10)   c12       -1
    I52(10)   c13       -1
    I52(10)   c20       1
    I52(10)   c32       -1
    I52(10)   c33       1
    I52(10)   c48       -1
    I52(10)   c49       1
    I52(10)   c80       1
    I52(10)   c81       1
    I53(14)   c11       -1
    I53(14)   c12       -1
    I53(14)   c13       -1
    I53(14)   c21       1
    I53(14)   c34       -1
    I53(14)   c35       1
    I53(14)   c50       -1
    I53(14)   c51       1
    I53(14)   c58       -1
    I53(14)   c59       1
    I53(14)   c64       -1
    I53(14)   c65       1
    I53(14)   c82       1
    I53(14)   c83       1
    I54(11)   c11       1
    I54(11)   c12       1
    I54(11)   c13       1
    I54(11)   c22       1
    I54(11)   c36       -1
    I54(11)   c37       1
    I54(11)   c52       -1
    I54(11)   c53       1
    I54(11)   c84       1
    I54(11)   c85       1
    I54(11)   c88       -1
    I55(15)   c11       1
    I55(15)   c12       1
    I55(15)   c13       1
    I55(15)   c23       1
    I55(15)   c38       -1
    I55(15)   c39       1
    I55(15)   c54       -1
    I55(15)   c55       1
    I55(15)   c60       -1
    I55(15)   c61       1
    I55(15)   c66       -1
    I55(15)   c67       1
    I55(15)   c86       1
    I55(15)   c87       1
    I55(15)   c88       -1
    I56(1)    OBJ       1
    I56(1)    c88       1
    MARKER    'MARKER'                 'INTEND'
RHS
    RHS1      c0        1
    RHS1      c1        1
    RHS1      c2        1
    RHS1      c3        1
    RHS1      c4        1
    RHS1      c5        1
    RHS1      c7        -1999999991
    RHS1      c8        -1999999989
    RHS1      c10       -1999999989
    RHS1      c12       -1999999991
    RHS1      c13       -1999999990
    RHS1      c24       -2999999902
    RHS1      c25       -1999999937
    RHS1      c26       -2999999895
    RHS1      c27       -1999999926
    RHS1      c28       -2999999871
    RHS1      c29       -1999999929
    RHS1      c30       -2999999840
    RHS1      c31       -1999999926
    RHS1      c32       -2999999865
    RHS1      c33       -1999999935
    RHS1      c34       -2999999854
    RHS1      c35       -1999999925
    RHS1      c36       -2999999846
    RHS1      c37       -1999999934
    RHS1      c38       -2999999865
    RHS1      c39       -1999999928
    RHS1      c40       -2999999937
    RHS1      c41       -1999999902
    RHS1      c42       -2999999926
    RHS1      c43       -1999999895
    RHS1      c44       -2999999869
    RHS1      c45       -1999999895
    RHS1      c46       -2999999836
    RHS1      c47       -1999999894
    RHS1      c48       -2999999864
    RHS1      c49       -1999999902
    RHS1      c50       -2999999855
    RHS1      c51       -1999999894
    RHS1      c52       -2999999847
    RHS1      c53       -1999999904
    RHS1      c54       -2999999868
    RHS1      c55       -1999999893
    RHS1      c56       -2999999838
    RHS1      c57       -1999999869
    RHS1      c58       -2999999855
    RHS1      c59       -1999999869
    RHS1      c60       -2999999866
    RHS1      c61       -1999999870
    RHS1      c62       -2999999869
    RHS1      c63       -1999999838
    RHS1      c64       -2999999854
    RHS1      c65       -1999999838
    RHS1      c66       -2999999866
    RHS1      c67       -1999999836
BOUNDS
 BV BND1      B0(13)  
 BV BND1      B1(17)  
 BV BND1      B2(12)  
 BV BND1      B3(16)  
 BV BND1      B4(17)  
 BV BND1      B5(17)  
 BV BND1      B6(10)  
 BV BND1      B7(14)  
 BV BND1      B8(9)   
 BV BND1      B9(13)  
 BV BND1      B10(0)  
 BV BND1      B11(4)  
 BV BND1      B12(2)  
 BV BND1      B13(2)  
 BV BND1      B14(4)  
 BV BND1      B15(4)  
 BV BND1      B16(4)  
 BV BND1      B17(0)  
 BV BND1      B18(2)  
 BV BND1      B19(2)  
 BV BND1      B20(4)  
 BV BND1      B21(4)  
 BV BND1      B22(0)  
 BV BND1      B23(0)  
 BV BND1      B24(0)  
 BV BND1      B25(2)  
 BV BND1      B26(2)  
 BV BND1      B27(2)  
 BV BND1      B28(0)  
 BV BND1      B29(0)  
 BV BND1      B30(2)  
 BV BND1      B31(0)  
 BV BND1      B32(2)  
 BV BND1      B33(2)  
 BV BND1      B34(0)  
 BV BND1      B35(0)  
 BV BND1      B36(0)  
 BV BND1      B37(0)  
 BV BND1      B38(0)  
 BV BND1      B39(0)  
 BV BND1      B40(0)  
 BV BND1      B41(0)  
 BV BND1      B42(0)  
 BV BND1      B43(0)  
 BV BND1      B44(0)  
 BV BND1      B45(0)  
 LI BND1      I46(14)   0
 LI BND1      I47(18)   0
 LI BND1      I48(15)   0
 LI BND1      I49(19)   0
 LI BND1      I50(17)   0
 LI BND1      I51(18)   0
 LI BND1      I52(10)   0
 LI BND1      I53(14)   0
 LI BND1      I54(11)   0
 LI BND1      I55(15)   0
 LI BND1      I56(1)    0
ENDATA
